p wcnf 155 232 233 
1 15 21 0 
1 55 144 0 
1 94 -113 0 
1 -89 136 0 
1 -103 57 0 
1 -101 135 0 
1 -41 -91 0 
1 72 10 0 
1 112 -78 0 
1 34 126 0 
1 -3 148 0 
1 67 -71 0 
1 142 135 0 
1 -110 17 0 
1 -51 27 0 
1 -141 107 0 
1 -87 7 0 
1 111 55 0 
1 -153 39 0 
1 -20 78 0 
1 -128 154 0 
1 77 -13 0 
1 -135 -101 0 
1 8 117 0 
1 21 -135 0 
1 -72 58 0 
1 -127 79 0 
1 87 90 0 
1 -30 120 0 
1 -10 -28 0 
1 -18 27 0 
1 -111 151 0 
1 135 -112 0 
1 72 127 0 
1 51 -119 0 
1 -75 99 0 
1 23 30 0 
1 116 -115 0 
1 61 -96 0 
1 72 -105 0 
1 77 -70 0 
1 -17 -34 0 
1 -125 142 0 
1 5 133 0 
1 39 -154 0 
1 115 139 0 
1 -67 -81 0 
1 35 105 0 
1 153 -77 0 
1 -142 -45 0 
1 20 -119 0 
1 -7 42 0 
1 20 21 0 
1 -39 -154 0 
1 47 103 0 
1 -96 70 0 
1 87 -76 0 
1 -128 -125 0 
1 -77 47 0 
1 -56 144 0 
1 154 -10 0 
1 -62 83 0 
1 114 -18 0 
1 61 140 0 
1 124 31 0 
1 -138 29 0 
1 5 138 0 
1 96 77 0 
1 11 -108 0 
1 23 95 0 
1 -155 -1 0 
1 136 -26 0 
1 -31 39 0 
1 79 18 0 
1 -40 -97 0 
1 13 62 0 
1 98 139 0 
1 -66 51 0 
1 -45 103 0 
1 -152 49 0 
1 105 137 0 
1 -112 -150 0 
1 57 -14 0 
1 -44 -79 0 
1 6 -135 0 
1 72 -53 0 
1 -154 -139 0 
1 -63 61 0 
1 -106 -141 0 
1 -42 -99 0 
1 -32 60 0 
1 141 -26 0 
1 -16 -120 0 
1 -140 -115 0 
1 103 -4 0 
1 11 -48 0 
1 -118 84 0 
1 -116 -38 0 
1 105 -86 0 
1 -109 84 0 
1 -19 -34 0 
1 -94 107 0 
1 -28 -66 0 
1 -89 -46 0 
1 61 -27 0 
1 146 62 0 
1 -127 151 0 
1 82 -45 0 
1 26 -1 0 
1 68 -2 0 
1 -138 -89 0 
1 -132 -125 0 
1 133 104 0 
1 -30 -65 0 
1 112 144 0 
1 10 -70 0 
1 22 -102 0 
1 -114 57 0 
1 -149 -92 0 
1 34 -53 0 
1 -16 51 0 
1 134 37 0 
1 21 45 0 
1 128 48 0 
1 71 65 0 
1 116 89 0 
1 -23 152 0 
1 -149 110 0 
1 -2 -10 0 
1 97 44 0 
1 -65 -135 0 
1 -12 -97 0 
1 -64 57 0 
1 142 86 0 
1 116 -127 0 
1 -118 130 0 
1 124 -98 0 
1 95 124 0 
1 -7 120 0 
1 -24 150 0 
1 3 -17 0 
1 -147 -34 0 
1 -137 100 0 
1 -47 -76 0 
1 143 -54 0 
1 49 154 0 
1 -48 -108 0 
1 -132 -154 0 
1 26 -92 0 
1 36 15 0 
1 -49 69 0 
1 -129 -102 0 
1 7 148 0 
1 -90 -6 0 
1 60 13 0 
1 -18 -108 0 
1 -107 120 0 
1 21 -91 0 
1 48 -13 0 
1 64 105 0 
1 5 105 0 
1 109 100 0 
1 -102 120 0 
1 76 134 0 
1 -56 -134 0 
1 -138 -111 0 
1 17 3 0 
1 -133 -46 0 
1 -81 141 0 
1 -152 -25 0 
1 -23 -132 0 
1 -87 118 0 
1 -77 -99 0 
1 39 -43 0 
1 -128 -27 0 
1 -147 -29 0 
1 87 63 0 
1 -39 55 0 
1 108 115 0 
1 -114 132 0 
1 69 -47 0 
1 -40 130 0 
1 99 -29 0 
1 -91 100 0 
1 -26 24 0 
1 102 -17 0 
1 -14 -34 0 
1 -122 -147 0 
1 -69 136 0 
1 66 76 0 
1 -120 -148 0 
1 -144 -149 0 
1 -108 -57 0 
1 93 104 0 
1 143 -123 0 
1 102 -52 0 
1 -55 43 0 
1 -151 45 0 
1 -19 51 0 
1 90 40 0 
1 -25 6 0 
1 148 138 0 
1 -76 -93 0 
1 51 -117 0 
1 67 69 0 
1 60 -100 0 
1 153 -139 0 
1 -39 -70 0 
1 -28 155 0 
1 -46 -20 0 
1 113 137 0 
1 -54 -138 0 
1 -38 42 0 
1 -70 56 0 
1 110 27 0 
1 -150 16 0 
1 -7 49 0 
1 -55 31 0 
1 -139 94 0 
1 83 134 0 
1 88 145 0 
1 45 99 0 
1 155 93 0 
1 -128 2 0 
1 -23 98 0 
1 65 -128 0 
1 -13 -104 0 
1 50 -10 0 
1 59 -71 0 
1 -154 -30 0 
1 -47 71 0 
1 144 -8 0 
